NAME: kp_test_instance
OBJSENSE
 MIN
ROWS
 N cost
 L IDB
 L KP
 L I0
 L I1
 L I2
 L I3
 L I4
 L I5
 L I6
 L I7
 L I8
 L I9
 L I10
 L I11
 L I12
 L I13
 L I14
 L I15
 L I16
 L I17
 L I18
 L I19
COLUMNS
 x0 cost 0
 x0 IDB 1
 x0 I0 1
 x1 cost 0
 x1 IDB 1
 x1 I1 1
 x2 cost 0
 x2 IDB 1
 x2 I2 1
 x3 cost 0
 x3 IDB 1
 x3 I3 1
 x4 cost 0
 x4 IDB 1
 x4 I4 1
 x5 cost 0
 x5 IDB 1
 x5 I5 1
 x6 cost 0
 x6 IDB 1
 x6 I6 1
 x7 cost 0
 x7 IDB 1
 x7 I7 1
 x8 cost 0
 x8 IDB 1
 x8 I8 1
 x9 cost 0
 x9 IDB 1
 x9 I9 1
 x10 cost 0
 x10 IDB 1
 x10 I10 1
 x11 cost 0
 x11 IDB 1
 x11 I11 1
 x12 cost 0
 x12 IDB 1
 x12 I12 1
 x13 cost 0
 x13 IDB 1
 x13 I13 1
 x14 cost 0
 x14 IDB 1
 x14 I14 1
 x15 cost 0
 x15 IDB 1
 x15 I15 1
 x16 cost 0
 x16 IDB 1
 x16 I16 1
 x17 cost 0
 x17 IDB 1
 x17 I17 1
 x18 cost 0
 x18 IDB 1
 x18 I18 1
 x19 cost 0
 x19 IDB 1
 x19 I19 1
 y0 cost 7
 y0 I0 1
 y0 KP 95
 y1 cost 11
 y1 I1 1
 y1 KP 89
 y2 cost 16
 y2 I2 1
 y2 KP 96
 y3 cost 27
 y3 I3 1
 y3 KP 82
 y4 cost 30
 y4 I4 1
 y4 KP 90
 y5 cost 57
 y5 I5 1
 y5 KP 81
 y6 cost 63
 y6 I6 1
 y6 KP 87
 y7 cost 59
 y7 I7 1
 y7 KP 69
 y8 cost 69
 y8 I8 1
 y8 KP 70
 y9 cost 77
 y9 I9 1
 y9 KP 69
 y10 cost 68
 y10 I10 1
 y10 KP 44
 y11 cost 46
 y11 I11 1
 y11 KP 27
 y12 cost 54
 y12 I12 1
 y12 KP 29
 y13 cost 96
 y13 I13 1
 y13 KP 48
 y14 cost 81
 y14 I14 1
 y14 KP 39
 y15 cost 78
 y15 I15 1
 y15 KP 29
 y16 cost 47
 y16 I16 1
 y16 KP 15
 y17 cost 75
 y17 I17 1
 y17 KP 8
 y18 cost 93
 y18 I18 1
 y18 KP 9
 y19 cost 23
 y19 I19 1
 y19 KP 1
RHS
 rhs IDB 15
 rhs KP 135
 rhs I0 1
 rhs I1 1
 rhs I2 1
 rhs I3 1
 rhs I4 1
 rhs I5 1
 rhs I6 1
 rhs I7 1
 rhs I8 1
 rhs I9 1
 rhs I10 1
 rhs I11 1
 rhs I12 1
 rhs I13 1
 rhs I14 1
 rhs I15 1
 rhs I16 1
 rhs I17 1
 rhs I18 1
 rhs I19 1
BOUNDS
 LI bound x0 0.0000000
 UI bound x0 1.0000000
 LI bound x1 0.0000000
 UI bound x1 1.0000000
 LI bound x2 0.0000000
 UI bound x2 1.0000000
 LI bound x3 0.0000000
 UI bound x3 1.0000000
 LI bound x4 0.0000000
 UI bound x4 1.0000000
 LI bound x5 0.0000000
 UI bound x5 1.0000000
 LI bound x6 0.0000000
 UI bound x6 1.0000000
 LI bound x7 0.0000000
 UI bound x7 1.0000000
 LI bound x8 0.0000000
 UI bound x8 1.0000000
 LI bound x9 0.0000000
 UI bound x9 1.0000000
 LI bound x10 0.0000000
 UI bound x10 1.0000000
 LI bound x11 0.0000000
 UI bound x11 1.0000000
 LI bound x12 0.0000000
 UI bound x12 1.0000000
 LI bound x13 0.0000000
 UI bound x13 1.0000000
 LI bound x14 0.0000000
 UI bound x14 1.0000000
 LI bound x15 0.0000000
 UI bound x15 1.0000000
 LI bound x16 0.0000000
 UI bound x16 1.0000000
 LI bound x17 0.0000000
 UI bound x17 1.0000000
 LI bound x18 0.0000000
 UI bound x18 1.0000000
 LI bound x19 0.0000000
 UI bound x19 1.0000000
 LI bound y0 0.0000000
 UI bound y0 1.0000000
 LI bound y1 0.0000000
 UI bound y1 1.0000000
 LI bound y2 0.0000000
 UI bound y2 1.0000000
 LI bound y3 0.0000000
 UI bound y3 1.0000000
 LI bound y4 0.0000000
 UI bound y4 1.0000000
 LI bound y5 0.0000000
 UI bound y5 1.0000000
 LI bound y6 0.0000000
 UI bound y6 1.0000000
 LI bound y7 0.0000000
 UI bound y7 1.0000000
 LI bound y8 0.0000000
 UI bound y8 1.0000000
 LI bound y9 0.0000000
 UI bound y9 1.0000000
 LI bound y10 0.0000000
 UI bound y10 1.0000000
 LI bound y11 0.0000000
 UI bound y11 1.0000000
 LI bound y12 0.0000000
 UI bound y12 1.0000000
 LI bound y13 0.0000000
 UI bound y13 1.0000000
 LI bound y14 0.0000000
 UI bound y14 1.0000000
 LI bound y15 0.0000000
 UI bound y15 1.0000000
 LI bound y16 0.0000000
 UI bound y16 1.0000000
 LI bound y17 0.0000000
 UI bound y17 1.0000000
 LI bound y18 0.0000000
 UI bound y18 1.0000000
 LI bound y19 0.0000000
 UI bound y19 1.0000000
ENDATA